2233582196938639833503,5,1,2,02,14,1,2,03,2,1,2,011,7,1,2,07,14,1,2,07,2,1,2,03,8,1,2,02,15,1,2,012,9,1,2,02,10,1,2,06,1,1,2,010,1,1,2,03,13,1,2,03,6,1,2,01,6,1,2,05,5,1,2,06,7,1,2,08,15,1,2,02,10,1,2,06,2,1,2,013,2,1,2,05,1,1,2,05,7,1,2,014,3,1,2,07,6,1,2,04,9,1,2,012,10,1,2,04,5,1,2,011,12,1,2,05,15,1,2,014,4,1,2,015,7,1,2,08,6,1,2,08,13,1,2,012,4,1,2,04,1,1,2,05,1,1,2,01,9,1,2,06,6,1,2,01,2,1,2,014,14,1,2,08,9,1,2,04,15,1,2,02,12,1,2,02,6,1,2,04,1,1,2,02,9,1,2,013,8,1,2,010,11,1,2,010,8,1,2,0